n_res = 4;
rc = [ 24, 25, 19, 15 ];
n_tasks = 30;
d = [ 5, 2, 7, 7, 7, 10, 1, 3, 2, 3, 6, 3, 10, 3, 10, 3, 9, 10, 4, 10, 7, 5, 5, 8, 9, 6, 1, 2, 4, 2 ];
rr = [| 24, 24, 24, 24, 24, 24, 24, 24, 24, 24, 24, 24, 24, 24, 24, 24, 24, 24, 24, 24, 24, 24, 24, 24, 24, 24, 24, 24, 24, 24
      | 25, 25, 25, 25, 25, 25, 25, 25, 25, 25, 25, 25, 25, 25, 25, 25, 25, 25, 25, 25, 25, 25, 25, 25, 25, 25, 25, 25, 25, 25
      | 19, 19, 19, 19, 19, 19, 19, 19, 19, 19, 19, 19, 19, 19, 19, 19, 19, 19, 19, 19, 19, 19, 19, 19, 19, 19, 19, 19, 19, 19
      | 15, 15, 15, 15, 15, 15, 15, 15, 15, 15, 15, 15, 15, 15, 15, 15, 15, 15, 15, 15, 15, 15, 15, 15, 15, 15, 15, 15, 15, 15|];
suc = [ { 4, 9, 27 },
       { 5, 8, 12 },
       { 6, 14, 25 },
       { 7, 18, 19 },
       { 11, 17, 23 },
       { 23 },
       { 8, 16 },
       { 10, 20 },
       { 13, 21 },
       { 26 },
       { 27 },
       { 29 },
       { 15, 24 },
       { 19 },
       { 29 },
       { 22 },
       { 22 },
       { 20, 25 },
       { 20 },
       { 30 },
       { 28 },
       { 30 },
       { 29 },
       { 30 },
       { 26 },
       { 28 },
       { 28 },
       {  },
       {  },
       {  } ];
